
  22    4
  10   10   10   10

   0   0   0   0   0   4 2 3 6 8 
   1  10  10  10  10   2 7 5 
   1  10  10  10  10   1 4 
   6  10  10  10  10   1 5 
   7  10  10  10  10   4 17 12 11 9 
  10  10  10  10  10   3 17 11 9 
   2  10  10  10  10   3 17 11 10 
   3  10  10  10  10   3 17 11 10 
   6  10  10  10  10   1 10 
   6  10  10  10  10   3 21 15 14 
   2  10  10  10  10   2 15 13 
   5  10  10  10  10   3 21 16 15 
  10  10  10  10  10   4 21 20 18 16 
   3  10  10  10  10   3 20 18 16 
   9  10  10  10  10   3 20 19 18 
   3  10  10  10  10   1 19 
   8  10  10  10  10   1 18 
   4  10  10  10  10   1 22
   5  10  10  10  10   1 22
   7  10  10  10  10   1 22
   1  10  10  10  10   1 22
   0   0   0   0   0   0 
